NAME : a280.tsp
COMMENT : Optimal tour for a280.tsp
TYPE : TOUR
DIMENSION : 280
Total Length: 2864.079478032783
TOUR_SECTION
1
2
280
3
279
278
248
249
250
247
244
243
242
241
245
240
239
238
237
236
235
234
233
232
231
246
251
230
229
228
227
226
225
224
223
219
222
221
220
218
215
214
211
217
216
213
212
206
205
204
203
202
201
200
144
143
142
141
140
139
138
137
136
135
269
268
267
266
265
264
263
254
253
208
207
210
209
252
255
256
257
258
259
260
261
262
270
134
133
19
132
131
130
20
21
128
127
126
129
154
155
153
156
152
151
177
176
181
182
180
179
178
150
149
148
147
146
145
199
198
197
196
195
194
193
192
191
190
189
188
187
186
185
184
183
163
164
165
166
167
168
171
172
170
169
102
101
100
99
98
93
94
97
96
95
78
77
75
74
73
76
82
81
79
80
92
103
91
90
89
112
88
83
84
85
62
63
64
65
66
72
71
70
67
69
68
58
59
44
57
56
55
54
47
48
53
52
51
50
49
37
36
35
38
39
40
46
45
41
42
43
60
61
118
117
115
116
86
87
113
114
111
110
109
108
104
105
106
107
173
174
162
161
175
160
159
158
157
119
120
121
122
123
124
125
30
31
34
33
32
29
28
27
26
22
25
23
24
18
17
16
271
272
273
274
275
276
277
4
5
6
7
9
8
10
11
12
13
14
15
-1
EOF
